\ENCODING=ISO-8859-1
\Problem name: instances

Maximize
 obj:
Subject To
 c1: 84 x1 + 66 x2 + 27 x3 + 58 x4 - 38 x5 + 58 x6 + 23 x7 + 12 x8 + 88 x9
     - 95 x10 <= 111
 c2: 42 x2 + 79 x3 + 85 x4 + 51 x5 + 84 x6 + 47 x7 + 88 x8 + 73 x9 + 75 x10
     <= 282
 c3: 6 x2 + 74 x3 + 62 x5 + 68 x6 + 38 x7 + 76 x8 + 2 x9 + 57 x10 <= 329
 c4: 65 x2 + 93 x3 + 66 x5 + 19 x6 + 21 x7 + 73 x8 + 78 x9 + 43 x10 <= 244
 c5: 33 x1 - 58 x2 - 69 x3 + 33 x5 + 34 x6 - 20 x8 + 92 x9 + 91 x10 <= 82
Bounds
      x1 >= 0
      x2 >= 0
      x3 >= 0
      x4 >= 0
      x5 >= 0
      x6 >= 0
      x7 >= 0
      x8 >= 0
      x9 >= 0
      x10 >= 0
Generals
 x1  x2  x3  x4  x5  x6  x7  x8  x9  x10 
End
